Minimize
  - 6 y_0 - 5 y_1 - 10 y_2 - 9 y_3 - 5 y_4 - 9 y_5 - 11 y_6 - 9 y_7 - 4 y_8
   - 11 y_9 - 12 y_10 - 7 y_11 - 11 y_12 - 11 y_13 - 10 y_14 - 9 y_15
   - 7 y_16 - 8 y_17 - 7 y_18 - 8 y_19 - 5 y_20 - 3 y_21 - 5 y_22 - 9 y_23
   - 3 y_24 - 10 y_25 - 7 y_26 - 3 y_27 - 6 y_28 - 10 y_29 - 2 y_30
   - 2 y_31 - 10 y_32 - 9 y_33 - 7 y_34 - 11 y_35 - 12 y_36 - 5 y_37
   - 4 y_38 - 11 y_39 - 5 y_40 - 8 y_41 - 7 y_42 - 9 y_43 - 9 y_44 - 6 y_45
   - 9 y_46 - 7 y_47 - 5 y_49 + 368 Constant
Subject To
 c_0: y_6 = 1
 c_1_0: y_0 >= 1
 c_1_1: y_1 + y_20 >= 1
 c_1_2: y_2 + y_29 >= 1
 c_1_3: y_3 >= 1
 c_1_4: y_4 >= 1
 c_1_5: y_5 >= 1
 c_1_6: y_6 + y_39 >= 1
 c_1_7: y_7 >= 1
 c_1_8: y_8 + y_38 + y_49 >= 1
 c_1_9: y_9 >= 1
 c_1_10: y_10 >= 1
 c_1_11: y_11 >= 1
 c_1_12: y_12 >= 1
 c_1_13: y_13 + y_14 + y_35 >= 1
 c_1_14: y_13 + y_14 >= 1
 c_1_15: y_15 >= 1
 c_1_16: y_16 + y_18 >= 1
 c_1_17: y_17 >= 1
 c_1_18: y_16 + y_18 + y_45 >= 1
 c_1_19: y_19 >= 1
 c_1_20: y_1 + y_20 >= 1
 c_1_21: y_21 >= 1
 c_1_22: y_22 >= 1
 c_1_23: y_23 >= 1
 c_1_24: y_24 >= 1
 c_1_25: y_25 >= 1
 c_1_26: y_26 >= 1
 c_1_27: y_27 >= 1
 c_1_28: y_28 >= 1
 c_1_29: y_2 + y_29 >= 1
 c_1_30: y_30 >= 1
 c_1_31: y_31 >= 1
 c_1_32: y_32 >= 1
 c_1_33: y_33 >= 1
 c_1_34: y_34 >= 1
 c_1_35: y_13 + y_35 >= 1
 c_1_36: y_36 >= 1
 c_1_37: y_37 >= 1
 c_1_38: y_8 + y_38 + y_49 >= 1
 c_1_39: y_6 + y_39 >= 1
 c_1_40: y_40 >= 1
 c_1_41: y_41 >= 1
 c_1_42: y_42 >= 1
 c_1_43: y_43 >= 1
 c_1_44: y_44 >= 1
 c_1_45: y_18 + y_45 >= 1
 c_1_46: y_46 >= 1
 c_1_47: y_47 >= 1
 c_1_48: y_48 >= 1
 c_1_49: y_8 + y_38 + y_49 >= 1
Bounds
 Constant = 1
Binaries
 y_0 y_1 y_2 y_3 y_4 y_5 y_6 y_7 y_8 y_9 y_10 y_11 y_12 y_13 y_14 y_15 y_16
 y_17 y_18 y_19 y_20 y_21 y_22 y_23 y_24 y_25 y_26 y_27 y_28 y_29 y_30 y_31
 y_32 y_33 y_34 y_35 y_36 y_37 y_38 y_39 y_40 y_41 y_42 y_43 y_44 y_45 y_46
 y_47 y_48 y_49
End
